Academic license - for non-commercial use only
Gurobi Optimizer version 9.0.3 build v9.0.3rc0 (mac64)
Optimize a model with 1796 rows, 1560 columns and 8140 nonzeros
Model fingerprint: 0x66fb3612
Variable types: 0 continuous, 1560 integer (1560 binary)
Coefficient statistics:
  Matrix range     [1e+00, 1e+00]
  Objective range  [1e+01, 9e+03]
  Bounds range     [1e+00, 1e+00]
  RHS range        [1e+00, 5e+01]
Presolve removed 20 rows and 10 columns
Presolve time: 0.02s
Presolved: 1776 rows, 1550 columns, 8090 nonzeros
Variable types: 0 continuous, 1550 integer (1550 binary)
Found heuristic solution: objective 26716.000000

Concurrent LP optimizer: dual simplex and barrier
Showing barrier log only...

Root barrier log...

Ordering time: 0.01s

Barrier statistics:
 AA' NZ     : 4.489e+04
 Factor NZ  : 2.711e+05 (roughly 4 MBytes of memory)
 Factor Ops : 5.349e+07 (less than 1 second per iteration)
 Threads    : 3

Barrier performed 0 iterations in 0.04 seconds
Barrier solve interrupted - model solved by another algorithm


Solved with dual simplex

Root relaxation: objective 2.402350e+04, 756 iterations, 0.02 seconds

    Nodes    |    Current Node    |     Objective Bounds      |     Work
 Expl Unexpl |  Obj  Depth IntInf | Incumbent    BestBd   Gap | It/Node Time

     0     0 24023.5000    0  224 26716.0000 24023.5000  10.1%     -    0s
H    0     0                    24244.000000 24023.5000  0.91%     -    0s
     0     0 24128.5000    0  225 24244.0000 24128.5000  0.48%     -    0s
     0     0 24128.5000    0  217 24244.0000 24128.5000  0.48%     -    0s
H    0     0                    24226.000000 24128.5000  0.40%     -    0s
H    0     0                    24189.000000 24128.5000  0.25%     -    0s
H    0     0                    24133.000000 24128.5000  0.02%     -    0s
     0     0 24133.0000    0  218 24133.0000 24133.0000  0.00%     -    0s

Cutting planes:
  Gomory: 2
  Zero half: 19
  RLT: 1

Explored 1 nodes (1414 simplex iterations) in 0.24 seconds
Thread count was 8 (of 8 available processors)

Solution count 5: 24133 24189 24226 ... 26716

Optimal solution found (tolerance 1.00e-04)
Best objective 2.413300000000e+04, best bound 2.413300000000e+04, gap 0.0000%

User-callback calls 213, time in user-callback 0.00 sec
Solution written to /Users/mdeboute/Desktop/Etudes/Master/M2/S9/GOPP/Projet/multi-period-flp/solution/instSingle_I10_J50_T3_1_result.txt
